
******************************************************************************
This program contains Ipopt, a library for large-scale nonlinear optimization.
 Ipopt is released as open source code under the Eclipse Public License (EPL).
         For more information visit http://projects.coin-or.org/Ipopt

This version of Ipopt was compiled from source code available at
    https://github.com/IDAES/Ipopt as part of the Institute for the Design of
    Advanced Energy Systems Process Systems Engineering Framework (IDAES PSE
    Framework) Copyright (c) 2018-2019. See https://github.com/IDAES/idaes-pse.

This version of Ipopt was compiled using HSL, a collection of Fortran codes
    for large-scale scientific computation.  All technical papers, sales and
    publicity material resulting from use of the HSL codes within IPOPT must
    contain the following acknowledgement:
        HSL, a collection of Fortran codes for large-scale scientific
        computation. See http://www.hsl.rl.ac.uk.
******************************************************************************

This is Ipopt version 3.13.2, running with linear solver ma27.

Number of nonzeros in equality constraint Jacobian...:      928
Number of nonzeros in inequality constraint Jacobian.:        0
Number of nonzeros in Lagrangian Hessian.............:      806

Total number of variables............................:      403
                     variables with only lower bounds:      124
                variables with lower and upper bounds:      217
                     variables with only upper bounds:        0
Total number of equality constraints.................:      402
Total number of inequality constraints...............:        0
        inequality constraints with only lower bounds:        0
   inequality constraints with lower and upper bounds:        0
        inequality constraints with only upper bounds:        0

iter    objective    inf_pr   inf_du lg(mu)  ||d||  lg(rg) alpha_du alpha_pr  ls
   0  0.0000000e+00 1.12e+00 8.88e-16  -1.0 0.00e+00    -  0.00e+00 0.00e+00   0
   1  3.6976585e-02 1.04e+00 2.37e+04  -1.0 1.59e+05    -  3.99e-01 7.46e-02h  1
   2  8.8698194e-02 1.00e+00 2.42e+04  -1.0 1.91e+05    -  4.86e-01 3.92e-02h  1
   3  1.1400668e+01 3.10e-01 5.76e+04  -1.0 1.86e+05    -  4.97e-01 9.90e-01h  1
   4  1.4048539e+01 4.25e-02 1.09e+03  -1.0 2.19e+04    -  7.89e-01 9.90e-01h  1
   5  1.4109834e+01 1.29e-03 3.88e+02  -1.0 1.21e+03    -  9.87e-01 9.90e-01h  1
   6  1.4119004e+01 1.76e-05 1.35e+01  -1.0 1.69e+02    -  9.90e-01 9.90e-01h  1
   7  1.4120239e+01 1.78e-05 1.10e+09  -1.0 3.13e+03    -  9.90e-01 7.73e-03h  8
   8  1.4121711e+01 1.82e-05 2.21e+09  -1.0 3.73e+03    -  9.91e-01 7.73e-03h  8
   9  1.4123186e+01 1.85e-05 3.33e+09  -1.0 3.74e+03    -  1.00e+00 7.73e-03h  8
iter    objective    inf_pr   inf_du lg(mu)  ||d||  lg(rg) alpha_du alpha_pr  ls
  10  1.4124645e+01 1.88e-05 4.44e+09  -1.0 3.70e+03    -  1.00e+00 7.73e-03h  8
  11  1.4126088e+01 1.91e-05 5.56e+09  -1.0 3.65e+03    -  1.00e+00 7.73e-03h  8
  12  1.4127515e+01 1.93e-05 6.68e+09  -1.0 3.61e+03    -  1.00e+00 7.73e-03h  8
  13  1.4128927e+01 1.96e-05 7.80e+09  -1.0 3.57e+03    -  1.00e+00 7.73e-03h  8
  14  1.4130323e+01 1.98e-05 8.91e+09  -1.0 3.53e+03    -  1.00e+00 7.73e-03h  8
  15  1.4131704e+01 2.00e-05 1.00e+10  -1.0 3.50e+03    -  1.00e+00 7.73e-03h  8
  16  1.4133070e+01 2.02e-05 1.12e+10  -1.0 3.46e+03    -  1.00e+00 7.73e-03h  8
  17  1.4307332e+01 1.38e-03 1.24e+08  -1.0 3.42e+03    -  1.00e+00 9.90e-01w  1
  18  1.4294098e+01 3.00e-05 1.22e+09  -1.0 2.55e+02    -  1.00e+00 9.90e-01h  1
  19  1.4294369e+01 3.19e-07 1.22e+11  -1.0 5.35e+00    -  1.00e+00 9.90e-01h  1
In iteration 19, 31 Slacks too small, adjusting variable bounds
iter    objective    inf_pr   inf_du lg(mu)  ||d||  lg(rg) alpha_du alpha_pr  ls
  20  1.4294371e+01 3.19e-09 1.22e+13  -1.0 4.68e-02    -  1.00e+00 9.90e-01h  1
  21  1.4294371e+01 9.13e-12 1.04e-01  -1.0 4.68e-04    -  1.00e+00 1.00e+00h  1
  22  1.4294012e+01 4.43e-10 1.19e+13  -9.0 5.98e+03    -  9.63e-01 1.16e-03f 10
  23  1.4293833e+01 5.56e-10 1.24e+13  -9.0 3.84e+03    -  9.93e-01 9.03e-04f 11
  24  1.4293654e+01 6.69e-10 1.24e+13  -9.0 3.57e+03    -  9.94e-01 9.69e-04f 11
  25  1.4293476e+01 7.84e-10 1.24e+13  -9.0 3.54e+03    -  1.00e+00 9.76e-04f 11
  26  1.4293387e+01 8.12e-10 1.24e+13  -9.0 3.54e+03    -  1.00e+00 4.88e-04f 12
  27  1.4112098e+01 1.97e-03 2.95e+08  -9.0 3.54e+03    -  1.00e+00 1.00e+00f  1
  28  1.4110346e+01 8.51e-08 2.63e-02  -9.0 2.98e+01    -  1.00e+00 1.00e+00h  1
  29  1.4110346e+01 2.75e-12 1.76e-10  -9.0 5.99e-04    -  1.00e+00 1.00e+00h  1

Number of Iterations....: 29

                                   (scaled)                 (unscaled)
Objective...............:   1.4110345959385338e+01    1.4110345959385338e+01
Dual infeasibility......:   1.7554393034024286e-10    1.7554393034024286e-10
Constraint violation....:   2.7546853686999384e-12    2.7546853686999384e-12
Complementarity.........:   9.0909090909090931e-10    9.0909090909090931e-10
Overall NLP error.......:   1.4646246725218240e-11    9.0909090909090931e-10


Number of objective function evaluations             = 197
Number of objective gradient evaluations             = 30
Number of equality constraint evaluations            = 197
Number of inequality constraint evaluations          = 0
Number of equality constraint Jacobian evaluations   = 30
Number of inequality constraint Jacobian evaluations = 0
Number of Lagrangian Hessian evaluations             = 29
Total CPU secs in IPOPT (w/o function evaluations)   =      0.059
Total CPU secs in NLP function evaluations           =      1.435

EXIT: Optimal Solution Found.
